8
28
0 1 70
0 2 99
0 3 128
0 4 95
0 5 75
0 6 40
0 7 88
1 2 73
1 3 102
1 4 69
1 5 53
1 6 30
1 7 116
2 3 29
2 4 28
2 5 24
2 6 65
2 7 71
3 4 43
3 5 53
3 6 94
3 7 56
4 5 36
4 6 61
4 7 99
5 6 41
5 7 63
6 7 86
